DIMENSION: 32
EDGE_WEIGHT_TYPE: EXPLICIT
EDGE_WEIGHT_FORMAT: FULL_MATRIX
EDGE_WEIGHT_SECTION:
32767 37 32767 29 94 37 32767 93 32767 32767 32767 32767 32767 32767 9 32767 32767 32767 76 32767 32767 32767 27 56 15 32767 32767 30 32767 32767 32767 56 
37 32767 39 30 32767 32767 55 74 32767 49 4 32767 82 32767 32767 32767 32767 32767 32767 32767 64 85 52 11 32767 9 41 32767 32767 32767 56 7 
32767 39 32767 86 32767 32767 32767 32767 33 32767 32767 32767 32767 63 32767 32767 49 32767 32767 32767 52 56 32767 32767 32767 11 21 32767 65 32767 32767 32767 
29 30 86 32767 39 24 32767 32767 30 32767 30 65 32767 32767 32767 82 52 32767 32767 76 63 17 32767 32767 32767 32767 60 32767 32767 32767 38 32767 
94 32767 32767 39 32767 67 21 60 94 32767 98 39 69 32767 7 65 31 32767 90 32767 35 32767 83 13 63 32767 32767 32767 69 94 100 32767 
37 32767 32767 24 67 32767 42 32767 32767 95 32767 32767 32767 32767 38 32767 32767 32767 41 44 32767 47 32767 32767 32767 32767 37 32767 94 32767 32767 41 
32767 55 32767 32767 21 42 32767 21 32767 32767 92 66 60 32767 100 32767 9 32767 32767 24 32767 32767 32767 32767 63 70 32767 32767 92 32767 32767 32767 
93 74 32767 32767 60 32767 21 32767 68 70 32767 11 28 32767 32767 32767 32767 32 2 6 32767 32767 32767 32767 32767 32767 80 32767 8 32767 27 32767 
32767 32767 33 30 94 32767 32767 68 32767 22 32767 24 32767 32767 40 86 95 55 32767 4 32767 32767 32767 52 7 32767 32767 32767 32767 32767 99 32767 
32767 49 32767 32767 32767 95 32767 70 22 32767 23 65 13 32767 98 32767 32767 33 9 32767 32767 32767 32767 32767 17 88 27 17 32767 27 44 45 
32767 4 32767 30 98 32767 92 32767 32767 23 32767 32767 32767 32767 74 32767 32767 15 32767 32767 32767 32767 32767 32767 32767 32767 44 61 22 37 32767 65 
32767 32767 32767 65 39 32767 66 11 24 65 32767 32767 18 32767 41 41 92 32767 58 32767 32767 55 76 65 32767 32767 32767 78 97 32767 32767 32767 
32767 82 32767 32767 69 32767 60 28 32767 13 32767 18 32767 68 32767 32767 12 60 32767 32767 32767 32767 32767 32767 32767 32767 2 8 32767 32767 32 32767 
32767 32767 63 32767 32767 32767 32767 32767 32767 32767 32767 32767 68 32767 66 55 64 32767 35 32767 32767 32767 32767 32767 25 32767 78 75 32767 32767 32767 32767 
9 32767 32767 32767 7 38 100 32767 40 98 74 41 32767 66 32767 32767 32767 32767 32767 45 46 58 70 54 32767 32767 32767 32767 32767 32767 32767 32767 
32767 32767 32767 82 65 32767 32767 32767 86 32767 32767 41 32767 55 32767 32767 8 68 32767 32767 61 32767 10 13 32767 15 32767 32767 80 66 32767 37 
32767 32767 49 52 31 32767 9 32767 95 32767 32767 92 12 64 32767 8 32767 32767 32767 32767 32767 32767 21 32767 32767 32767 32767 32767 32767 32767 1 11 
32767 32767 32767 32767 32767 32767 32767 32 55 33 15 32767 60 32767 32767 68 32767 32767 32767 32767 32767 59 32767 38 32767 32767 32767 32767 32767 32767 32767 39 
76 32767 32767 32767 90 41 32767 2 32767 9 32767 58 32767 35 32767 32767 32767 32767 32767 32767 32767 32767 84 32767 32767 32767 52 100 32767 32767 32767 32 
32767 32767 32767 76 32767 44 24 6 4 32767 32767 32767 32767 32767 45 32767 32767 32767 32767 32767 32767 32767 49 67 24 32767 32767 95 32767 32767 32767 32767 
32767 64 52 63 35 32767 32767 32767 32767 32767 32767 32767 32767 32767 46 61 32767 32767 32767 32767 32767 32767 64 32767 32767 32767 57 65 40 43 32767 55 
32767 85 56 17 32767 47 32767 32767 32767 32767 32767 55 32767 32767 58 32767 32767 59 32767 32767 32767 32767 32767 32767 1 32767 32767 17 58 55 32767 32767 
27 52 32767 32767 83 32767 32767 32767 32767 32767 32767 76 32767 32767 70 10 21 32767 84 49 64 32767 32767 26 32767 32767 3 86 70 32767 50 90 
56 11 32767 32767 13 32767 32767 32767 52 32767 32767 65 32767 32767 54 13 32767 38 32767 67 32767 32767 26 32767 76 2 24 32767 87 32767 32767 99 
15 32767 32767 32767 63 32767 63 32767 7 17 32767 32767 32767 25 32767 32767 32767 32767 32767 24 32767 1 32767 76 32767 99 43 100 6 88 32767 32767 
32767 9 11 32767 32767 32767 70 32767 32767 88 32767 32767 32767 32767 32767 15 32767 32767 32767 32767 32767 32767 32767 2 99 32767 32767 97 32767 32767 39 32767 
32767 41 21 60 32767 37 32767 80 32767 27 44 32767 2 78 32767 32767 32767 32767 52 32767 57 32767 3 24 43 32767 32767 32767 50 87 24 28 
30 32767 32767 32767 32767 32767 32767 32767 32767 17 61 78 8 75 32767 32767 32767 32767 100 95 65 17 86 32767 100 97 32767 32767 49 32767 18 32767 
32767 32767 65 32767 69 94 92 8 32767 32767 22 97 32767 32767 32767 80 32767 32767 32767 32767 40 58 70 87 6 32767 50 49 32767 32767 32767 32767 
32767 32767 32767 32767 94 32767 32767 32767 32767 27 37 32767 32767 32767 32767 66 32767 32767 32767 32767 43 55 32767 32767 88 32767 87 32767 32767 32767 23 96 
32767 56 32767 38 100 32767 32767 27 99 44 32767 32767 32 32767 32767 32767 1 32767 32767 32767 32767 32767 50 32767 32767 39 24 18 32767 23 32767 32767 
56 7 32767 32767 32767 41 32767 32767 32767 45 65 32767 32767 32767 32767 37 11 39 32 32767 55 32767 90 99 32767 32767 28 32767 32767 96 32767 32767 
EOF